%%%mzn-stat: initTime=0.002241367
%%%mzn-stat: objective=332
%%%mzn-stat: nodes=420
%%%mzn-stat: restarts=0
%%%mzn-stat: peakDepth=87
%%%mzn-stat: solveTime=0.015591669
%%%mzn-stat: variables=278
%%%mzn-stat: propagators=182
%%%mzn-stat: failures=333
%%%mzn-stat: propagations=42527
%%%mzn-stat: nogoods=333
%%%mzn-stat: AverageConflictSize=2.4774774774774775
%%%mzn-stat: NumUnitNogoodsLearned=331
%%%mzn-stat: AverageLearnedNogoodLength=1.042042042042042
%%%mzn-stat: AverageBacktrackAmount=0
%%%mzn-stat: AverageLbd=1.006006006006006
%%%mzn-stat-end
maxleg = 332;
succ = array1d(1..20,[10, 6, 12, 14, 7, 5, 16, 20, 19, 2, 18, 1, 9, 3, 8, 11, 13, 17, 15, 4]);
% time elapsed: 10.10 s
----------
==========
% time elapsed: 10.10 s
%%%mzn-stat: initTime=0.002241367
%%%mzn-stat: objective=332
%%%mzn-stat: nodes=420
%%%mzn-stat: restarts=0
%%%mzn-stat: peakDepth=87
%%%mzn-stat: solveTime=0.015594576
%%%mzn-stat: variables=278
%%%mzn-stat: propagators=182
%%%mzn-stat: failures=333
%%%mzn-stat: propagations=42527
%%%mzn-stat: nogoods=333
%%%mzn-stat: AverageConflictSize=2.4774774774774775
%%%mzn-stat: NumUnitNogoodsLearned=331
%%%mzn-stat: AverageLearnedNogoodLength=1.042042042042042
%%%mzn-stat: AverageBacktrackAmount=0
%%%mzn-stat: AverageLbd=1.006006006006006
%%%mzn-stat-end
